(set-logic QF_SLAH)

(declare-datatypes ((data_t 0)) (((c_data_t (sz Int)))))

(declare-heap (Int data_t))

(define-fun hck ((?x Int) (?y Int) (?v Int)) Bool
	(and
		(>= (- ?y ?x) 2) (<= (- ?y ?x) ?v)
		(sep (pto ?x (c_data_t (- ?y ?x))) (blk (+ ?x 1) ?y))
))

(define-fun-rec hls ((?x Int) (?y Int) (?v Int)) Bool
	(or
		(and (= ?x ?y) (_ emp Int data_t))
		(exists ((?w Int)) (sep (hck ?x ?w ?v) (hls ?w ?y ?v)))
))

(declare-const x0 Int)
(declare-const x1 Int)
(declare-const x2 Int)
(declare-const x3 Int)
(declare-const x4 Int)
(declare-const x5 Int)
(declare-const v4 Int)
(declare-const x6 Int)
(declare-const x7 Int)
(declare-const x8 Int)
(declare-const x9 Int)
(declare-const x10 Int)
(declare-const x11 Int)
(declare-const x12 Int)
(declare-const x13 Int)
(declare-const x14 Int)
(declare-const x15 Int)
(declare-const x16 Int)
(declare-const x17 Int)
(declare-const x18 Int)
(declare-const x19 Int)
(declare-const x20 Int)
(declare-const x21 Int)
(declare-const x22 Int)
(declare-const x23 Int)
(declare-const x24 Int)
(declare-const x25 Int)
(declare-const x26 Int)
(declare-const x27 Int)
(declare-const x28 Int)
(declare-const x29 Int)
(declare-const v28 Int)
(declare-const x30 Int)
(declare-const x31 Int)
(declare-const x32 Int)
(declare-const x33 Int)
(declare-const x34 Int)
(declare-const x35 Int)
(declare-const x36 Int)
(declare-const x37 Int)
(declare-const x38 Int)
(declare-const x39 Int)
(declare-const x40 Int)
(declare-const x41 Int)
(declare-const x42 Int)
(declare-const x43 Int)
(declare-const x44 Int)
(declare-const x45 Int)
(declare-const v44 Int)
(declare-const x46 Int)
(declare-const x47 Int)
(declare-const v46 Int)
(declare-const x48 Int)
(declare-const x49 Int)
(declare-const v48 Int)
(declare-const x50 Int)
(declare-const x51 Int)
(declare-const v50 Int)
(declare-const x52 Int)
(declare-const x53 Int)
(declare-const v52 Int)
(declare-const x54 Int)
(declare-const x55 Int)
(declare-const x56 Int)
(declare-const x57 Int)
(declare-const v56 Int)
(declare-const x58 Int)
(declare-const x59 Int)
(declare-const v58 Int)
(declare-const x60 Int)
(declare-const x61 Int)
(declare-const v60 Int)
(declare-const x62 Int)
(declare-const x63 Int)
(declare-const v62 Int)
(declare-const x64 Int)
(declare-const x65 Int)
(declare-const x66 Int)
(declare-const x67 Int)
(declare-const x68 Int)
(declare-const x69 Int)
(declare-const x70 Int)
(declare-const x71 Int)
(declare-const x72 Int)
(declare-const x73 Int)
(declare-const x74 Int)
(declare-const x75 Int)
(declare-const x76 Int)
(declare-const x77 Int)
(declare-const x78 Int)
(declare-const x79 Int)
(declare-const x80 Int)
(declare-const x81 Int)
(declare-const v80 Int)
(declare-const x82 Int)
(declare-const x83 Int)
(declare-const v82 Int)
(declare-const x84 Int)
(declare-const x85 Int)
(declare-const x86 Int)
(declare-const x87 Int)
(declare-const x88 Int)
(declare-const x89 Int)
(declare-const v88 Int)
(declare-const x90 Int)
(declare-const x91 Int)
(declare-const x92 Int)
(declare-const x93 Int)
(declare-const x94 Int)
(declare-const x95 Int)
(declare-const v94 Int)
(declare-const x96 Int)
(declare-const x97 Int)
(declare-const v96 Int)
(declare-const x98 Int)
(declare-const x99 Int)
(declare-const x100 Int)
(declare-const x101 Int)
(declare-const x102 Int)
(declare-const x103 Int)
(declare-const v102 Int)
(declare-const x104 Int)
(declare-const x105 Int)
(declare-const x106 Int)
(declare-const x107 Int)
(declare-const v106 Int)
(declare-const x108 Int)
(declare-const x109 Int)
(declare-const x110 Int)
(declare-const x111 Int)
(declare-const x112 Int)
(declare-const x113 Int)
(declare-const x114 Int)
(declare-const x115 Int)
(declare-const x116 Int)
(declare-const x117 Int)
(declare-const x118 Int)
(declare-const x119 Int)
(declare-const x120 Int)
(declare-const x121 Int)
(declare-const x122 Int)
(declare-const x123 Int)
(declare-const x124 Int)
(declare-const x125 Int)
(declare-const x126 Int)
(declare-const x127 Int)
(declare-const v126 Int)
(declare-const x128 Int)
(declare-const x129 Int)
(declare-const x130 Int)
(declare-const x131 Int)
(declare-const v130 Int)
(declare-const x132 Int)
(declare-const x133 Int)
(declare-const v132 Int)
(declare-const x134 Int)
(declare-const x135 Int)
(declare-const x136 Int)
(declare-const x137 Int)
(declare-const v136 Int)
(declare-const x138 Int)
(declare-const x139 Int)
(declare-const v138 Int)
(declare-const x140 Int)
(declare-const x141 Int)
(declare-const x142 Int)
(declare-const x143 Int)
(declare-const v142 Int)
(declare-const x144 Int)
(declare-const x145 Int)
(declare-const x146 Int)
(declare-const x147 Int)
(declare-const v146 Int)
(declare-const x148 Int)
(declare-const x149 Int)
(declare-const x150 Int)
(declare-const x151 Int)
(declare-const v150 Int)
(declare-const x152 Int)
(declare-const x153 Int)
(declare-const x154 Int)
(declare-const x155 Int)
(declare-const v154 Int)
(declare-const x156 Int)
(declare-const x157 Int)
(declare-const x158 Int)
(declare-const x159 Int)
(declare-const x160 Int)
(declare-const x161 Int)
(declare-const v160 Int)
(declare-const x162 Int)
(declare-const x163 Int)
(declare-const x164 Int)
(declare-const x165 Int)
(declare-const x166 Int)
(declare-const x167 Int)
(declare-const x168 Int)
(declare-const x169 Int)
(declare-const x170 Int)
(declare-const x171 Int)
(declare-const v170 Int)
(declare-const x172 Int)
(declare-const x173 Int)
(declare-const v172 Int)
(declare-const x174 Int)
(declare-const x175 Int)
(declare-const x176 Int)
(declare-const x177 Int)
(declare-const v176 Int)
(declare-const x178 Int)
(declare-const x179 Int)
(declare-const x180 Int)
(declare-const x181 Int)
(declare-const x182 Int)
(declare-const x183 Int)
(declare-const x184 Int)
(declare-const x185 Int)
(declare-const x186 Int)
(declare-const x187 Int)
(declare-const v186 Int)
(declare-const x188 Int)
(declare-const x189 Int)

(assert(and
(= x87 x15) (= x117 x171) (< x123 x18) (< x165 x100) (distinct x184 x3) (< x13 x129) (< x97 x162) (= x120 x159) (distinct x53 x144) 
(sep
(pto x0 (c_data_t x1))
(blk x2 x3)
(hls x4 x5 v4)
(blk x6 x7)
(blk x8 x9)
(blk x10 x11)
(blk x12 x13)
(pto x14 (c_data_t x15))
(blk x16 x17)
(blk x18 x19)
(pto x20 (c_data_t x21))
(blk x22 x23)
(pto x24 (c_data_t x25))
(blk x26 x27)
(hls x28 x29 v28)
(blk x30 x31)
(blk x32 x33)
(pto x34 (c_data_t x35))
(pto x36 (c_data_t x37))
(pto x38 (c_data_t x39))
(pto x40 (c_data_t x41))
(blk x42 x43)
(hls x44 x45 v44)
(hls x46 x47 v46)
(hls x48 x49 v48)
(hls x50 x51 v50)
(hls x52 x53 v52)
(blk x54 x55)
(hls x56 x57 v56)
(hls x58 x59 v58)
(hls x60 x61 v60)
(hls x62 x63 v62)
(blk x64 x65)
(blk x66 x67)
(pto x68 (c_data_t x69))
(pto x70 (c_data_t x71))
(blk x72 x73)
(blk x74 x75)
(pto x76 (c_data_t x77))
(blk x78 x79)
(hls x80 x81 v80)
(hls x82 x83 v82)
(blk x84 x85)
(pto x86 (c_data_t x87))
(hls x88 x89 v88)
(blk x90 x91)
(pto x92 (c_data_t x93))
(hls x94 x95 v94)
(hls x96 x97 v96)
(blk x98 x99)
(pto x100 (c_data_t x101))
(hls x102 x103 v102)
(pto x104 (c_data_t x105))
(hls x106 x107 v106)
(blk x108 x109)
(blk x110 x111)
(pto x112 (c_data_t x113))
(pto x114 (c_data_t x115))
(blk x116 x117)
(pto x118 (c_data_t x119))
(pto x120 (c_data_t x121))
(blk x122 x123)
(blk x124 x125)
(hls x126 x127 v126)
(pto x128 (c_data_t x129))
(hls x130 x131 v130)
(hls x132 x133 v132)
(blk x134 x135)
(hls x136 x137 v136)
(hls x138 x139 v138)
(blk x140 x141)
(hls x142 x143 v142)
(blk x144 x145)
(hls x146 x147 v146)
(blk x148 x149)
(hls x150 x151 v150)
(pto x152 (c_data_t x153))
(hls x154 x155 v154)
(pto x156 (c_data_t x157))
(pto x158 (c_data_t x159))
(hls x160 x161 v160)
(blk x162 x163)
(blk x164 x165)
(pto x166 (c_data_t x167))
(pto x168 (c_data_t x169))
(hls x170 x171 v170)
(hls x172 x173 v172)
(pto x174 (c_data_t x175))
(hls x176 x177 v176)
(blk x178 x179)
(pto x180 (c_data_t x181))
(blk x182 x183)
(blk x184 x185)
(hls x186 x187 v186)
(blk x188 x189)
)))

(check-sat)